
&CONTROL
  calculation = 'scf'
  outdir = './out/'
  prefix = 'aiida'
  pseudo_dir = './../pseudo/'
  tprnfor = .true.
  tstress = .true.
  verbosity = 'high'
/
&SYSTEM
  degauss =   0.0000734986
  ecutrho =   3.7600000000d+02
  ecutwfc =   9.4000000000d+01
  ibrav = 0
  nat = 72
  nosym = .false.
  ntyp = 2
  occupations = 'smearing'
  smearing = 'fd'
  nspin = 2
  starting_magnetization(1) = 2.1428571429d-01
  starting_magnetization(2) = 0.0000000000d+00
/
&ELECTRONS
  conv_thr =   7.2000000000d-09
  electron_maxstep = 80
  mixing_beta =   4.0000000000d-01
/
ATOMIC_SPECIES
Cr     51.9961 Cr.upf
I      126.90447 I.upf
ATOMIC_POSITIONS crystal
Cr           0.1111111111       0.2222222222       0.5000000000
Cr           0.2222222222       0.1111111111       0.5000000000
I            0.2165016667       0.0000000000       0.5782046383
I           -0.0000000000       0.2165016667       0.5782046383
I            0.1168316667       0.1168316667       0.5782046383
I            0.1168316667       0.0000000000       0.4217953617
I            0.0000000000       0.1168316667       0.4217953617
I            0.2165016667       0.2165016667       0.4217953617
Cr           0.1111111111       0.5555555556       0.5000000000
Cr           0.2222222222       0.4444444444       0.5000000000
I            0.2165016667       0.3333333333       0.5782046383
I            0.0000000000       0.5498350000       0.5782046383
I            0.1168316667       0.4501650000       0.5782046383
I            0.1168316667       0.3333333333       0.4217953617
I            0.0000000000       0.4501650000       0.4217953617
I            0.2165016667       0.5498350000       0.4217953617
Cr           0.1111111111       0.8888888889       0.5000000000
Cr           0.2222222222       0.7777777778       0.5000000000
I            0.2165016667       0.6666666667       0.5782046383
I           -0.0000000000       0.8831683333       0.5782046383
I            0.1168316667       0.7834983333       0.5782046383
I            0.1168316667       0.6666666667       0.4217953617
I           -0.0000000000       0.7834983333       0.4217953617
I            0.2165016667       0.8831683333       0.4217953617
Cr           0.4444444444       0.2222222222       0.5000000000
Cr           0.5555555556       0.1111111111       0.5000000000
I            0.5498350000       0.0000000000       0.5782046383
I            0.3333333333       0.2165016667       0.5782046383
I            0.4501650000       0.1168316667       0.5782046383
I            0.4501650000       0.0000000000       0.4217953617
I            0.3333333333       0.1168316667       0.4217953617
I            0.5498350000       0.2165016667       0.4217953617
Cr           0.4444444444       0.5555555556       0.5000000000
Cr           0.5555555556       0.4444444444       0.5000000000
I            0.5498350000       0.3333333333       0.5782046383
I            0.3333333333       0.5498350000       0.5782046383
I            0.4501650000       0.4501650000       0.5782046383
I            0.4501650000       0.3333333333       0.4217953617
I            0.3333333333       0.4501650000       0.4217953617
I            0.5498350000       0.5498350000       0.4217953617
Cr           0.4444444444       0.8888888889       0.5000000000
Cr           0.5555555556       0.7777777778       0.5000000000
I            0.5498350000       0.6666666667       0.5782046383
I            0.3333333333       0.8831683333       0.5782046383
I            0.4501650000       0.7834983333       0.5782046383
I            0.4501650000       0.6666666667       0.4217953617
I            0.3333333333       0.7834983333       0.4217953617
I            0.5498350000       0.8831683333       0.4217953617
Cr           0.7777777778       0.2222222222       0.5000000000
Cr           0.8888888889       0.1111111111       0.5000000000
I            0.8831683333       0.0000000000       0.5782046383
I            0.6666666667       0.2165016667       0.5782046383
I            0.7834983333       0.1168316667       0.5782046383
I            0.7834983333       0.0000000000       0.4217953617
I            0.6666666667       0.1168316667       0.4217953617
I            0.8831683333       0.2165016667       0.4217953617
Cr           0.7777777778       0.5555555556       0.5000000000
Cr           0.8888888889       0.4444444444       0.5000000000
I            0.8831683333       0.3333333333       0.5782046383
I            0.6666666667       0.5498350000       0.5782046383
I            0.7834983333       0.4501650000       0.5782046383
I            0.7834983333       0.3333333333       0.4217953617
I            0.6666666667       0.4501650000       0.4217953617
I            0.8831683333       0.5498350000       0.4217953617
Cr           0.7777777778       0.8888888889       0.5000000000
Cr           0.8888888889       0.7777777778       0.5000000000
I            0.8831683333       0.6666666667       0.5782046383
I            0.6666666667       0.8831683333       0.5782046383
I            0.7834983333       0.7834983333       0.5782046383
I            0.7834983333       0.6666666667       0.4217953617
I            0.6666666667       0.7834983333       0.4217953617
I            0.8831683333       0.8831683333       0.4217953617
K_POINTS automatic
4 4 1 0 0 0
CELL_PARAMETERS angstrom
     20.6010000000       0.0000000000       0.0000000000
    -10.3005000000      17.8409893434       0.0000000000
      0.0000000000       0.0000000000      20.0000000000
